
  32   50
   9   18    6   19   10   15    9    9   11   19    8   10    8    9   11   17   11    2    8    8   13   19   13   12    9   14   10   10   10    7   10    7    0    0    0    0    0    0    0    0    0    0    0    0    0    0    0    0    0    0

   0   0   0   0   0   0   0   0   0   0   0   0   0   0   0   0   0   0   0   0   0   0   0   0   0   0   0   0   0   0   0   0   0   0   0   0   0   0   0   0   0   0   0   0   0   0   0   0   0   0   0   9 2 3 4 5 8 9 10 13 14 
   8   0   7   0   0   0   0   0   0   7   2   0   0   8   0   0   0   9   0   0   0   0   0   0   0   0   0   0   0   0   0   0   0   0   0   0   0   0   0   0   0   0   0   0   0   0   0   0   0   0   0  10 31 30 29 24 23 19 17 16 15 11 
   8   0   0   0   0   0   0   0   0   0   0   0   0   0   0   0   0   0   0   0   0   0   0   9   0   0   0   0   0   8   6   0   0   0   0   0   0   0   0   0   0   0   0   0   0   0   0   0   0   0   0   6 31 29 27 17 15 7 
   3   5   0   0   0   0   0   0   0   7   0   0   0   0   0   0   0   0   0   0   0   0   0   0   0   0   0   0   5   1   2   0   0   0   0   0   0   0   0   0   0   0   0   0   0   0   0   0   0   0   0   3 15 12 6 
   3   0   0   0   0   0   0   0   0   0   0   0   0   0   0   0   0   0   0   0   0   0   0   0   0   0   0   0   0   0   0   0   3   0   0   0   0   0   0   0   0   0   0   0   0   0   0   0   0   0   0   6 31 29 24 22 16 15 
   3   0   6   0   0   0   0   0   0   0   0   5   2   0   0   0   0   0   0   0   0   0   0   0   0   0   6   0   0   0   0   0   0   0   0   0   0   0   0   0   0   0   0   0   0   0   0   0   0   0   0   7 31 29 24 23 22 18 16 
   2   0   0   0   5   0   0   0   0   7   0   0   0   8   0   0   0   0   0   0   7   0   0   0   6   0   0   0   0   0   0   0   0   0   0   0   0   0   0   0   0   0   0   0   0   0   0   0   0   0   0   4 28 24 23 11 
   8   0   0   0   0   2   3   2   0   0   0   0   0   0   0   0   0   4   0   0   0   0   0   0   0   0   0   0   0   0   0   1   0   0   0   0   0   0   0   0   0   0   0   0   0   0   0   0   0   0   0   8 30 29 28 26 25 22 21 20 
   3   0   0   0   0   0   2   0   0   0   6   8   7   0   0   0   0   0   0   0   0   0   0   0   0   0   0   0   0   0   0   0   6   0   0   0   0   0   0   0   0   0   0   0   0   0   0   0   0   0   0   6 25 24 23 22 21 18 
  10   0   0   0   9   0   0   0   0   0   0   0   0   0   0   0  10   0   0   0   0   0   0   0   0   0   0   0   0   3   0   0   0   0   0   0   0   0   0   0   0   0   0   0   0   0   0   0   0   0   0   5 26 24 23 20 19 
   5   0   0   0   0   0   0   9   0   0   0   0   0   0   0   8   0   0   0   0   0   0   4   0   0   0   0   0   0   0   0   0   4   0   0   0   0   0   0   0   0   0   0   0   0   0   0   0   0   0   0   4 26 22 21 18 
   6   9   6   0   0   0   0   0   0   0   2   0   0   0   0   0   0   0   0   0   2   0   0   0   0   0   0   0   0   0   0   0   0   0   0   0   0   0   0   0   0   0   0   0   0   0   0   0   0   0   0   4 30 23 21 18 
  10   0   0   0   2   0   0   0   0   0   0   0   0   0   1   0   0   0   0   7   0   0   0   0   0   0   0   0   0   0   0   0   0   0   0   0   0   0   0   0   0   0   0   0   0   0   0   0   0   0   0   4 27 26 21 18 
   1   0   0   0   0   0   0   0   0   0   0   0   0   0   0   0   0   0   0   0   0   0   0   6   0   0   0   0   0   0   0   0   0   0   0   0   0   0   0   0   0   0   0   0   0   0   0   0   0   0   0   4 30 23 22 20 
   7   0   7   0   0   0   0   0   0   0   0   0   0   0   0   0   0   0   0   0   0   0  10   0   0   0   0   0   0   0   0   0   0   0   0   0   0   0   0   0   0   0   0   0   0   0   0   0   0   0   0   3 28 25 20 
   5   0   0   0   0   0   0   0   0   0   0   0   0   0   0   0   0   0   0   0   0   0   0   0   0   0   0   0   0   0   0   0   0   0   0   0   0   0   0   0   0   0   0   0   0   0   0   0   0   0   0   3 27 21 20 
  10   0   0   0   0   0   0   0   0   0   0   0   0   0   0   2  10   0   0   0   0   0   0   0   0   0   7   0   0   0   0   0   0   0   0   0   0   0   0   0   0   0   0   0   0   0   0   0   0   0   0   2 25 21 
   5   0   0   0   0   0   0   0   0   0   0   0   0   0   0   0   0   0   0   0   0   1   0  10   0   0   0   0   0   0   0   0   0   0   0   0   0   0   0   0   0   0   0   0   0   0   0   0   0   0   0   1 20 
   7   0   2   0   2   0   0   0   0   0  10   0   0   1   0   0   0   0   0   0   5   0   0   0   0   0   7   0  10   0   0   0   0   0   0   0   0   0   0   0   0   0   0   0   0   0   0   0   0   0   0   1 21 
   6   0   0   0   0   0   0   2   0   3   0   6   0   0   0   0   0   0   0   0   6  10   0   0   0   0   0   0   0   0   1   0   0   0   0   0   0   0   0   0   0   0   0   0   0   0   0   0   0   0   0   1 32
   7   0   0   0  10   0   0   0   0   0   0   0   0   0   7   0   5   0   0   0   1   0   0   0   0   0   0  10   0   0   0   8   0   0   0   0   0   0   0   0   0   0   0   0   0   0   0   0   0   0   0   1 32
   2   0   0   0   0   0   3   0   0   0   0   0   0   0   0   0   5   0   0   1   0   0   0   0   0   0   0   0   0   0   0   0   0   0   0   0   0   0   0   0   0   0   0   0   0   0   0   0   0   0   0   1 32
   3   8   0   0   0   0   0   0   0   0   8   0   8   0   0   0   0   1   0   0   0   0   0   0   0   0   0   0   0   0   0   0   0   0   0   0   0   0   0   0   0   0   0   0   0   0   0   0   0   0   0   1 32
  10   0   0   0   0   0   6   0   0   0   0   0   0   0   0   0   0   0   0   0   0   9   0   0   8   0   0   0   0   0   0   0   1   0   0   0   0   0   0   0   0   0   0   0   0   0   0   0   0   0   0   1 32
   1   0   0   0   0   5   0   0   7   0   0   0   9   3   0   0   0   0   0   0   6   0   0   0   0   0   0   0   0   0   0   0   6   0   0   0   0   0   0   0   0   0   0   0   0   0   0   0   0   0   0   1 32
   5   3   0   0   0   0   0   0   0   0   0   0   2   0   0   0   6   0   2   0   0   0   0   0   0   9   0   0   0   0   0   0   0   0   0   0   0   0   0   0   0   0   0   0   0   0   0   0   0   0   0   1 32
   3   0   0   0   0   0   0   0   0   0   0   0   0   0   0   0   0   0   0   0   3   0   0   0   0   0   0   0   0   0   0  10   0   0   0   0   0   0   0   0   0   0   0   0   0   0   0   0   0   0   0   1 32
   3   0   0   0   0   0  10   0   9   0   9   0   0   0   0   0   0   0   0   8   0   0   0   0   3   0   0   0   0   0   0   0   0   0   0   0   0   0   0   0   0   0   0   0   0   0   0   0   0   0   0   1 32
   7   0  10   0   8   0   0   0   9   2   6   0   0   0   9   4   0   0   0   0   0   7   8   0   0   0   4   0   0   0   0   0   0   0   0   0   0   0   0   0   0   0   0   0   0   0   0   0   0   0   0   1 32
   9   0   1   6   0  10   0   0   0   4   0   0   0   0   0   0   1   0   0   0   0   0   0   0   0   0   0   0   0   0   0   0   0   0   0   0   0   0   0   0   0   0   0   0   0   0   0   0   0   0   0   1 32
   1   0   0   0   0   0   0   0   0   0   0   0   0   0   0   4   0   0   0   0   0   0   7   0   9   0   0   0   0   0   0   0   0   0   0   0   0   0   0   0   0   0   0   0   0   0   0   0   0   0   0   1 32
   0   0   0   0   0   0   0   0   0   0   0   0   0   0   0   0   0   0   0   0   0   0   0   0   0   0   0   0   0   0   0   0   0   0   0   0   0   0   0   0   0   0   0   0   0   0   0   0   0   0   0   0 
